solution status: time limit reached
objective value:                                 -177
x_344                                               1 	(obj:-1)
x_345                                               1 	(obj:-1)
x_298                                               1 	(obj:-1)
x_1004                                              1 	(obj:-1)
x_102                                               1 	(obj:-1)
x_105                                               1 	(obj:-1)
x_2048                                              1 	(obj:-1)
x_1001                                              1 	(obj:-1)
x_94                                                1 	(obj:-1)
x_1622                                              1 	(obj:-1)
x_1999                                              1 	(obj:-1)
x_556                                               1 	(obj:-1)
x_1199                                              1 	(obj:-1)
x_1171                                              1 	(obj:-1)
x_1281                                              1 	(obj:-1)
x_681                                               1 	(obj:-1)
x_1348                                              1 	(obj:-1)
x_406                                               1 	(obj:-1)
x_246                                               1 	(obj:-1)
x_241                                               1 	(obj:-1)
x_1506                                              1 	(obj:-1)
x_1619                                              1 	(obj:-1)
x_1613                                              1 	(obj:-1)
x_1146                                              1 	(obj:-1)
x_691                                               1 	(obj:-1)
x_416                                               1 	(obj:-1)
x_1385                                              1 	(obj:-1)
x_380                                               1 	(obj:-1)
x_381                                               1 	(obj:-1)
x_251                                               1 	(obj:-1)
x_1848                                              1 	(obj:-1)
x_168                                               1 	(obj:-1)
x_163                                               1 	(obj:-1)
x_1841                                              1 	(obj:-1)
x_1091                                              1 	(obj:-1)
x_1815                                              1 	(obj:-1)
x_1098                                              1 	(obj:-1)
x_1979                                              1 	(obj:-1)
x_808                                               1 	(obj:-1)
x_801                                               1 	(obj:-1)
x_1777                                              1 	(obj:-1)
x_1552                                              1 	(obj:-1)
x_539                                               1 	(obj:-1)
x_1395                                              1 	(obj:-1)
x_427                                               1 	(obj:-1)
x_154                                               1 	(obj:-1)
x_159                                               1 	(obj:-1)
x_813                                               1 	(obj:-1)
x_421                                               1 	(obj:-1)
x_1493                                              1 	(obj:-1)
x_1702                                              1 	(obj:-1)
x_1708                                              1 	(obj:-1)
x_1391                                              1 	(obj:-1)
x_1128                                              1 	(obj:-1)
x_522                                               1 	(obj:-1)
x_1236                                              1 	(obj:-1)
x_439                                               1 	(obj:-1)
x_430                                               1 	(obj:-1)
x_234                                               1 	(obj:-1)
x_1                                                 1 	(obj:-1)
x_930                                               1 	(obj:-1)
x_1955                                              1 	(obj:-1)
x_827                                               1 	(obj:-1)
x_1484                                              1 	(obj:-1)
x_1719                                              1 	(obj:-1)
x_798                                               1 	(obj:-1)
x_1272                                              1 	(obj:-1)
x_511                                               1 	(obj:-1)
x_622                                               1 	(obj:-1)
x_1222                                              1 	(obj:-1)
x_11                                                1 	(obj:-1)
x_16                                                1 	(obj:-1)
x_208                                               1 	(obj:-1)
x_1575                                              1 	(obj:-1)
x_1820                                              1 	(obj:-1)
x_921                                               1 	(obj:-1)
x_1532                                              1 	(obj:-1)
x_61                                                1 	(obj:-1)
x_64                                                1 	(obj:-1)
x_1588                                              1 	(obj:-1)
x_633                                               1 	(obj:-1)
x_401                                               1 	(obj:-1)
x_1376                                              1 	(obj:-1)
x_1109                                              1 	(obj:-1)
x_1933                                              1 	(obj:-1)
x_1938                                              1 	(obj:-1)
x_842                                               1 	(obj:-1)
x_848                                               1 	(obj:-1)
x_1738                                              1 	(obj:-1)
x_1736                                              1 	(obj:-1)
x_751                                               1 	(obj:-1)
x_1030                                              1 	(obj:-1)
x_604                                               1 	(obj:-1)
x_1205                                              1 	(obj:-1)
x_467                                               1 	(obj:-1)
x_488                                               1 	(obj:-1)
x_197                                               1 	(obj:-1)
x_196                                               1 	(obj:-1)
x_903                                               1 	(obj:-1)
x_908                                               1 	(obj:-1)
x_853                                               1 	(obj:-1)
x_740                                               1 	(obj:-1)
x_741                                               1 	(obj:-1)
x_1696                                              1 	(obj:-1)
x_1473                                              1 	(obj:-1)
x_1309                                              1 	(obj:-1)
x_23                                                1 	(obj:-1)
x_1083                                              1 	(obj:-1)
x_1919                                              1 	(obj:-1)
x_867                                               1 	(obj:-1)
x_2024                                              1 	(obj:-1)
x_2021                                              1 	(obj:-1)
x_882                                               1 	(obj:-1)
x_774                                               1 	(obj:-1)
x_1049                                              1 	(obj:-1)
x_1048                                              1 	(obj:-1)
x_1262                                              1 	(obj:-1)
x_664                                               1 	(obj:-1)
x_1460                                              1 	(obj:-1)
x_1334                                              1 	(obj:-1)
x_631                                               1 	(obj:-1)
x_1867                                              1 	(obj:-1)
x_966                                               1 	(obj:-1)
x_960                                               1 	(obj:-1)
x_1241                                              1 	(obj:-1)
x_894                                               1 	(obj:-1)
x_1247                                              1 	(obj:-1)
x_1966                                              1 	(obj:-1)
x_1789                                              1 	(obj:-1)
x_1070                                              1 	(obj:-1)
x_1418                                              1 	(obj:-1)
x_1416                                              1 	(obj:-1)
x_1324                                              1 	(obj:-1)
x_1251                                              1 	(obj:-1)
x_1529                                              1 	(obj:-1)
x_307                                               1 	(obj:-1)
x_1898                                              1 	(obj:-1)
x_950                                               1 	(obj:-1)
x_2003                                              1 	(obj:-1)
x_2034                                              1 	(obj:-1)
x_715                                               1 	(obj:-1)
x_661                                               1 	(obj:-1)
x_1665                                              1 	(obj:-1)
x_1540                                              1 	(obj:-1)
x_1885                                              1 	(obj:-1)
x_130                                               1 	(obj:-1)
x_2014                                              1 	(obj:-1)
x_701                                               1 	(obj:-1)
x_82                                                1 	(obj:-1)
x_1659                                              1 	(obj:-1)
x_584                                               1 	(obj:-1)
x_1435                                              1 	(obj:-1)
x_654                                               1 	(obj:-1)
x_327                                               1 	(obj:-1)
x_1598                                              1 	(obj:-1)
x_1648                                              1 	(obj:-1)
x_577                                               1 	(obj:-1)
x_734                                               1 	(obj:-1)
x_1358                                              1 	(obj:-1)
x_461                                               1 	(obj:-1)
x_284                                               1 	(obj:-1)
x_260                                               1 	(obj:-1)
x_269                                               1 	(obj:-1)
x_1562                                              1 	(obj:-1)
x_984                                               1 	(obj:-1)
x_116                                               1 	(obj:-1)
x_111                                               1 	(obj:-1)
x_1634                                              1 	(obj:-1)
x_566                                               1 	(obj:-1)
x_1186                                              1 	(obj:-1)
x_1182                                              1 	(obj:-1)
x_722                                               1 	(obj:-1)
x_1165                                              1 	(obj:-1)
x_49                                                1 	(obj:-1)
x_1298                                              1 	(obj:-1)
x_1291                                              1 	(obj:-1)
x_474                                               1 	(obj:-1)
